n_res = 4;
rc = [ 41, 40, 49, 54 ];
n_tasks = 120;
d = [ 3, 3, 1, 1, 4, 3, 5, 2, 6, 10, 3, 5, 3, 4, 3, 6, 6, 2, 3, 2, 6, 4, 7, 7, 1, 4, 3, 10, 4, 8, 7, 1, 4, 10, 1, 1, 4, 4, 9, 2, 7, 2, 6, 3, 7, 7, 1, 7, 9, 2, 8, 1, 5, 2, 5, 2, 6, 4, 1, 2, 4, 3, 4, 4, 3, 10, 4, 8, 7, 5, 7, 9, 4, 5, 7, 3, 7, 7, 10, 3, 8, 9, 6, 9, 5, 10, 2, 8, 10, 6, 10, 3, 2, 6, 5, 9, 9, 7, 10, 5, 5, 1, 5, 7, 8, 7, 6, 2, 7, 5, 2, 1, 10, 4, 2, 1, 2, 3, 3, 7 ];
rr = [| 0, 8, 1, 1, 1, 0, 1, 0, 9, 4, 10, 5, 0, 9, 0, 5, 8, 9, 7, 6, 8, 2, 5, 6, 6, 0, 4, 1, 7, 0, 8, 3, 3, 0, 0, 4, 0, 9, 0, 0, 10, 2, 0, 0, 5, 2, 6, 0, 5, 9, 2, 10, 10, 5, 8, 6, 6, 9, 0, 0, 0, 4, 0, 10, 6, 4, 10, 10, 0, 0, 1, 9, 3, 4, 0, 9, 0, 6, 1, 0, 4, 5, 4, 5, 9, 6, 0, 7, 4, 9, 0, 0, 8, 8, 8, 0, 10, 0, 6, 2, 7, 0, 0, 3, 7, 10, 7, 4, 6, 5, 5, 10, 0, 0, 0, 6, 9, 1, 5, 5
      | 7, 5, 2, 0, 2, 6, 0, 2, 7, 1, 10, 6, 0, 1, 5, 2, 10, 5, 4, 10, 1, 0, 3, 9, 5, 8, 1, 8, 0, 8, 3, 7, 1, 0, 1, 0, 0, 5, 2, 1, 7, 10, 1, 8, 7, 10, 0, 2, 0, 9, 0, 3, 6, 3, 5, 3, 5, 1, 10, 6, 1, 10, 3, 0, 1, 8, 1, 6, 1, 3, 2, 1, 9, 6, 0, 1, 5, 2, 1, 9, 0, 0, 6, 5, 9, 4, 2, 2, 0, 3, 4, 0, 6, 9, 1, 8, 0, 0, 6, 0, 6, 3, 10, 9, 5, 1, 1, 1, 8, 7, 8, 1, 8, 4, 3, 0, 7, 9, 0, 7
      | 0, 3, 10, 0, 8, 5, 3, 4, 9, 0, 8, 4, 0, 3, 7, 10, 3, 0, 8, 0, 6, 1, 6, 5, 9, 5, 0, 0, 0, 10, 0, 10, 8, 10, 3, 5, 6, 10, 0, 4, 7, 0, 0, 6, 8, 3, 3, 8, 0, 0, 0, 8, 5, 9, 7, 0, 0, 3, 3, 7, 0, 2, 10, 3, 5, 0, 0, 0, 9, 0, 2, 2, 2, 9, 7, 5, 8, 5, 7, 3, 9, 0, 8, 0, 1, 2, 4, 5, 2, 0, 3, 6, 1, 9, 0, 0, 7, 9, 0, 3, 0, 9, 4, 7, 4, 9, 6, 9, 0, 4, 4, 9, 5, 2, 9, 0, 4, 4, 2, 10
      | 1, 5, 0, 4, 6, 8, 7, 6, 9, 8, 2, 9, 5, 6, 6, 0, 0, 0, 9, 2, 8, 4, 8, 7, 5, 5, 8, 3, 0, 7, 7, 9, 9, 4, 10, 0, 4, 5, 8, 0, 1, 3, 2, 0, 0, 0, 1, 6, 2, 4, 2, 0, 7, 2, 1, 0, 7, 7, 2, 5, 3, 9, 3, 0, 7, 7, 2, 0, 4, 0, 0, 2, 0, 5, 5, 3, 8, 0, 9, 0, 6, 4, 7, 10, 3, 8, 9, 0, 6, 2, 10, 0, 7, 5, 0, 0, 0, 1, 0, 4, 3, 9, 9, 0, 8, 0, 10, 10, 0, 7, 0, 5, 2, 7, 2, 7, 0, 0, 0, 1 |];
suc = [ { 5, 6, 8 },
       { 4, 11, 36 },
       { 14, 30, 32 },
       { 12, 18, 24 },
       { 7, 20, 26 },
       { 9, 21, 27 },
       { 10, 16, 47 },
       { 34, 58, 73 },
       { 29, 61, 76 },
       { 77 },
       { 13, 33, 51 },
       { 25, 44, 78 },
       { 15, 19, 23 },
       { 31, 48, 67 },
       { 29, 35, 52 },
       { 17, 28, 45 },
       { 36, 56, 105 },
       { 33, 41, 74 },
       { 39, 65 },
       { 22, 38, 83 },
       { 48 },
       { 41, 50, 61 },
       { 64, 81 },
       { 25, 28 },
       { 54, 60, 115 },
       { 37, 41, 46 },
       { 32, 36, 53 },
       { 40, 85 },
       { 53, 81 },
       { 56, 72 },
       { 49, 70, 82 },
       { 44, 71 },
       { 46, 83 },
       { 57, 66, 68 },
       { 39, 40, 100 },
       { 65, 66, 116 },
       { 69, 93, 97 },
       { 43, 109 },
       { 44, 59, 108 },
       { 46, 91, 107 },
       { 42, 80, 85 },
       { 112 },
       { 68, 75, 82 },
       { 45, 57, 61 },
       { 58, 109 },
       { 57, 80, 86 },
       { 52, 55, 62 },
       { 54, 64, 66 },
       { 72, 103 },
       { 60, 92, 93 },
       { 52, 77, 84 },
       { 74, 95 },
       { 88, 90, 110 },
       { 89, 91, 99 },
       { 72 },
       { 69, 91, 94 },
       { 103 },
       { 62, 119 },
       { 79, 89, 99 },
       { 63, 75, 88 },
       { 62, 70, 102 },
       { 104 },
       { 71, 74, 105 },
       { 73, 75 },
       { 70, 86, 118 },
       { 88, 118, 120 },
       { 79, 87, 116 },
       { 90 },
       { 71, 82, 108 },
       { 106 },
       { 113 },
       { 73, 86, 94 },
       { 78 },
       { 114 },
       { 84 },
       { 78, 84, 89 },
       { 80, 81, 87 },
       { 104 },
       { 85, 107 },
       { 92, 96, 97 },
       { 83, 93 },
       { 87, 92, 100 },
       { 101 },
       { 100, 102 },
       { 94 },
       { 96 },
       { 90 },
       { 114 },
       { 95, 105 },
       { 96 },
       { 98, 111, 112 },
       { 98, 102 },
       { 95, 99, 108 },
       { 97 },
       { 101, 110 },
       { 115 },
       { 98, 115 },
       { 104 },
       { 101 },
       { 113 },
       { 106 },
       { 103, 110 },
       { 114 },
       { 118 },
       { 106, 117 },
       { 107 },
       { 109 },
       { 117 },
       { 111 },
       { 111, 112 },
       { 120 },
       { 113 },
       { 116 },
       { 119 },
       { 117 },
       { 119 },
       { 120 },
       {  },
       {  },
       {  } ];
